\ This file has been generated by DOcplex
\ ENCODING=ISO-8859-1
\Problem name: tiger problem

Minimize
 obj: V
Subject To
 c1: V + 14 a1_0 + 23 a1_1 >= 0
 c2: V + 13 a1_0 + 18 a1_1 >= 0
 c3: a1_0 + a1_1 = 1

Bounds
 0 <= a1_0 <= 1
 0 <= a1_1 <= 1
       V Free

Binaries
 a1_0 a1_1
End
